VALUE 383
1 129
4 260
6 262
7 263
10 266
11 267
13 269
16 272
18 274
19 275
21 277
24 280
25 281
28 284
30 286
31 287
34 290
35 291
37 293
40 296
41 297
44 300
46 302
47 303
49 305
52 308
54 310
55 311
58 314
59 315
61 317
64 320
66 322
67 323
69 325
72 328
73 329
76 332
78 334
79 335
81 337
84 340
86 342
87 343
90 346
91 347
93 349
96 352
97 353
100 356
102 358
103 359
106 362
107 363
109 365
112 368
114 370
115 371
117 373
120 376
121 377
124 380
126 382
127 383
129 385
130 386
131 387
133 389
136 392
137 393
140 396
142 398
143 399
145 401
148 404
150 406
151 407
154 410
155 411
157 413
160 416
161 417
164 420
166 422
167 423
170 426
171 427
173 429
176 432
178 434
179 435
181 437
184 440
185 441
188 444
190 446
191 447
193 449
196 452
198 454
199 455
202 458
203 459
205 461
208 464
210 466
211 467
213 469
216 472
217 473
220 476
222 478
223 479
226 482
227 483
229 485
232 488
233 489
236 492
238 494
239 495
241 497
244 500
246 502
247 503
250 506
251 507
253 509
255 256
255 511
258 386
259 387
260 388
261 389
262 390
263 391
264 392
265 393
266 394
267 395
268 396
269 397
270 398
271 399
272 400
273 401
274 402
275 403
276 404
277 405
278 406
279 407
280 408
281 409
282 410
283 411
284 412
285 413
286 414
287 415
288 416
289 417
290 418
291 419
292 420
293 421
294 422
295 423
296 424
297 425
298 426
299 427
300 428
301 429
302 430
303 431
304 432
305 433
306 434
307 435
308 436
309 437
310 438
311 439
312 440
313 441
314 442
315 443
316 444
317 445
318 446
319 447
320 448
321 449
322 450
323 451
324 452
325 453
326 454
327 455
328 456
329 457
330 458
331 459
332 460
333 461
334 462
335 463
336 464
337 465
338 466
339 467
340 468
341 469
342 470
343 471
344 472
345 473
346 474
347 475
348 476
349 477
350 478
351 479
352 480
353 481
354 482
355 483
356 484
357 485
358 486
359 487
360 488
361 489
362 490
363 491
364 492
365 493
366 494
367 495
368 496
369 497
370 498
371 499
372 500
373 501
374 502
375 503
376 504
377 505
378 506
379 507
380 508
381 509
382 510
383 384
383 511
385 449
386 450
387 451
388 452
389 453
390 454
391 455
392 456
393 457
394 458
395 459
396 460
397 461
398 462
399 463
400 464
401 465
402 466
403 467
404 468
405 469
406 470
407 471
408 472
409 473
410 474
411 475
412 476
413 477
414 478
415 479
416 480
417 481
418 482
419 483
420 484
421 485
422 486
423 487
424 488
425 489
426 490
427 491
428 492
429 493
430 494
431 495
432 496
433 497
434 498
435 499
436 500
437 501
438 502
439 503
440 504
441 505
442 506
443 507
444 508
445 509
446 510
447 448
447 511
449 481
450 482
451 483
452 484
453 485
454 486
455 487
456 488
457 489
458 490
459 491
460 492
461 493
462 494
463 495
464 496
465 497
466 498
467 499
468 500
469 501
470 502
471 503
472 504
473 505
474 506
475 507
476 508
477 509
478 510
479 480
479 511
481 497
482 498
483 499
484 500
485 501
486 502
487 503
488 504
489 505
490 506
491 507
492 508
493 509
494 510
495 496
495 511
497 505
498 502
499 503
500 508
501 503
502 510
503 504
503 511
505 507
506 510
507 508
507 511
509 510
509 511